p edge 149 845
e 1 42
e 2 43
e 3 44
e 4 45
e 5 46
e 6 47
e 7 48
e 8 49
e 9 50
e 10 51
e 11 52
e 12 53
e 13 54
e 14 55
e 15 56
e 16 57
e 17 58
e 18 59
e 19 60
e 20 61
e 21 62
e 22 63
e 23 64
e 24 65
e 25 66
e 26 67
e 27 68
e 28 69
e 29 70
e 30 71
e 31 72
e 32 73
e 33 74
e 34 75
e 35 76
e 36 77
e 37 78
e 38 79
e 39 80
e 40 81
e 41 82
e 42 83
e 42 86
e 42 88
e 42 89
e 42 94
e 42 96
e 42 100
e 42 102
e 42 103
e 42 104
e 42 113
e 42 114
e 42 116
e 42 118
e 42 122
e 42 125
e 42 127
e 42 132
e 42 144
e 42 149
e 43 84
e 43 85
e 43 87
e 43 88
e 43 91
e 43 92
e 43 93
e 43 97
e 43 99
e 43 101
e 43 103
e 43 104
e 43 106
e 43 109
e 43 119
e 43 122
e 43 123
e 43 124
e 43 125
e 43 128
e 43 129
e 43 131
e 43 133
e 43 143
e 43 147
e 43 148
e 44 84
e 44 87
e 44 88
e 44 90
e 44 91
e 44 93
e 44 97
e 44 100
e 44 101
e 44 105
e 44 107
e 44 111
e 44 115
e 44 116
e 44 117
e 44 129
e 44 130
e 44 134
e 44 136
e 44 138
e 44 140
e 44 141
e 44 142
e 44 145
e 44 148
e 45 87
e 45 90
e 45 92
e 45 94
e 45 99
e 45 100
e 45 104
e 45 105
e 45 108
e 45 112
e 45 114
e 45 119
e 45 121
e 45 122
e 45 125
e 45 129
e 45 131
e 45 136
e 45 137
e 45 144
e 45 146
e 45 147
e 45 148
e 46 86
e 46 89
e 46 90
e 46 94
e 46 102
e 46 107
e 46 120
e 46 121
e 46 129
e 46 130
e 46 135
e 46 138
e 46 139
e 46 143
e 46 145
e 46 147
e 47 84
e 47 85
e 47 94
e 47 99
e 47 103
e 47 105
e 47 107
e 47 109
e 47 110
e 47 115
e 47 118
e 47 119
e 47 121
e 47 126
e 47 129
e 47 134
e 47 138
e 47 139
e 48 87
e 48 89
e 48 90
e 48 99
e 48 103
e 48 104
e 48 108
e 48 113
e 48 117
e 48 118
e 48 126
e 48 130
e 48 131
e 48 133
e 48 137
e 48 138
e 48 144
e 48 149
e 49 86
e 49 88
e 49 95
e 49 97
e 49 98
e 49 99
e 49 100
e 49 106
e 49 109
e 49 115
e 49 116
e 49 117
e 49 120
e 49 121
e 49 122
e 49 124
e 49 125
e 49 133
e 49 135
e 50 88
e 50 94
e 50 103
e 50 106
e 50 111
e 50 114
e 50 116
e 50 119
e 50 123
e 50 125
e 50 126
e 50 128
e 50 131
e 50 134
e 50 136
e 50 141
e 50 142
e 51 83
e 51 90
e 51 91
e 51 100
e 51 101
e 51 103
e 51 106
e 51 112
e 51 113
e 51 114
e 51 121
e 51 123
e 51 124
e 51 125
e 51 133
e 51 135
e 51 142
e 52 88
e 52 89
e 52 90
e 52 94
e 52 101
e 52 104
e 52 115
e 52 118
e 52 119
e 52 121
e 52 131
e 52 134
e 52 137
e 52 143
e 52 145
e 52 149
e 53 83
e 53 85
e 53 86
e 53 89
e 53 92
e 53 93
e 53 97
e 53 102
e 53 106
e 53 110
e 53 112
e 53 113
e 53 116
e 53 120
e 53 126
e 53 131
e 53 132
e 53 135
e 53 136
e 53 139
e 53 140
e 53 145
e 53 146
e 54 83
e 54 85
e 54 88
e 54 91
e 54 105
e 54 106
e 54 113
e 54 114
e 54 119
e 54 121
e 54 124
e 54 126
e 54 127
e 54 128
e 54 130
e 54 132
e 54 137
e 54 138
e 54 140
e 54 142
e 54 148
e 55 85
e 55 86
e 55 95
e 55 98
e 55 111
e 55 113
e 55 117
e 55 123
e 55 125
e 55 127
e 55 130
e 55 132
e 55 134
e 55 136
e 55 137
e 55 141
e 55 143
e 55 145
e 55 146
e 56 83
e 56 89
e 56 91
e 56 92
e 56 93
e 56 95
e 56 96
e 56 97
e 56 98
e 56 106
e 56 107
e 56 109
e 56 114
e 56 121
e 56 122
e 56 123
e 56 128
e 56 133
e 56 137
e 56 143
e 56 145
e 57 83
e 57 85
e 57 88
e 57 91
e 57 93
e 57 98
e 57 101
e 57 104
e 57 107
e 57 108
e 57 110
e 57 112
e 57 114
e 57 119
e 57 124
e 57 126
e 57 135
e 57 140
e 57 142
e 57 146
e 58 84
e 58 87
e 58 94
e 58 102
e 58 104
e 58 105
e 58 106
e 58 107
e 58 110
e 58 117
e 58 122
e 58 128
e 58 130
e 58 134
e 58 136
e 58 140
e 58 147
e 58 148
e 59 83
e 59 89
e 59 92
e 59 96
e 59 98
e 59 102
e 59 103
e 59 108
e 59 109
e 59 111
e 59 112
e 59 114
e 59 115
e 59 127
e 59 132
e 59 133
e 59 137
e 59 138
e 59 141
e 59 143
e 59 146
e 60 84
e 60 86
e 60 87
e 60 91
e 60 92
e 60 95
e 60 98
e 60 102
e 60 112
e 60 113
e 60 120
e 60 121
e 60 122
e 60 125
e 60 126
e 60 130
e 60 134
e 60 140
e 60 141
e 60 142
e 60 146
e 61 83
e 61 84
e 61 90
e 61 93
e 61 95
e 61 98
e 61 100
e 61 101
e 61 109
e 61 112
e 61 117
e 61 118
e 61 119
e 61 123
e 61 125
e 61 127
e 61 128
e 61 131
e 61 135
e 61 136
e 61 139
e 61 144
e 61 146
e 61 148
e 61 149
e 62 87
e 62 88
e 62 91
e 62 92
e 62 93
e 62 100
e 62 103
e 62 108
e 62 118
e 62 123
e 62 125
e 62 126
e 62 127
e 62 129
e 62 132
e 62 140
e 62 143
e 62 144
e 62 145
e 62 146
e 62 148
e 62 149
e 63 83
e 63 86
e 63 96
e 63 99
e 63 106
e 63 108
e 63 109
e 63 110
e 63 122
e 63 124
e 63 127
e 63 134
e 63 136
e 63 137
e 63 140
e 63 144
e 64 85
e 64 88
e 64 93
e 64 95
e 64 96
e 64 107
e 64 108
e 64 116
e 64 117
e 64 126
e 64 129
e 64 136
e 64 138
e 64 143
e 65 83
e 65 85
e 65 87
e 65 88
e 65 90
e 65 94
e 65 99
e 65 102
e 65 104
e 65 107
e 65 110
e 65 113
e 65 115
e 65 118
e 65 124
e 65 127
e 65 137
e 65 139
e 65 141
e 65 143
e 65 145
e 65 146
e 66 83
e 66 87
e 66 95
e 66 98
e 66 101
e 66 105
e 66 110
e 66 112
e 66 116
e 66 117
e 66 120
e 66 126
e 66 131
e 66 132
e 66 137
e 66 138
e 66 147
e 66 148
e 67 89
e 67 93
e 67 95
e 67 97
e 67 99
e 67 105
e 67 112
e 67 113
e 67 120
e 67 127
e 67 139
e 67 141
e 67 144
e 67 148
e 68 84
e 68 89
e 68 90
e 68 93
e 68 94
e 68 97
e 68 98
e 68 111
e 68 114
e 68 120
e 68 121
e 68 127
e 68 130
e 68 141
e 68 142
e 68 143
e 69 84
e 69 92
e 69 93
e 69 95
e 69 100
e 69 101
e 69 102
e 69 103
e 69 105
e 69 106
e 69 108
e 69 110
e 69 120
e 69 121
e 69 122
e 69 124
e 69 126
e 69 128
e 69 130
e 69 131
e 69 134
e 69 139
e 69 141
e 69 142
e 69 146
e 69 147
e 69 149
e 70 84
e 70 86
e 70 91
e 70 95
e 70 96
e 70 98
e 70 100
e 70 102
e 70 111
e 70 114
e 70 117
e 70 124
e 70 128
e 70 133
e 70 136
e 70 144
e 70 149
e 71 84
e 71 86
e 71 88
e 71 91
e 71 95
e 71 97
e 71 98
e 71 101
e 71 102
e 71 105
e 71 108
e 71 109
e 71 111
e 71 112
e 71 113
e 71 116
e 71 117
e 71 123
e 71 133
e 71 134
e 71 136
e 71 140
e 71 141
e 71 142
e 71 144
e 71 145
e 71 146
e 71 147
e 71 149
e 72 86
e 72 89
e 72 91
e 72 92
e 72 95
e 72 96
e 72 99
e 72 103
e 72 108
e 72 110
e 72 113
e 72 115
e 72 119
e 72 122
e 72 128
e 72 132
e 72 135
e 72 138
e 72 140
e 72 149
e 73 85
e 73 87
e 73 96
e 73 98
e 73 103
e 73 105
e 73 108
e 73 111
e 73 116
e 73 118
e 73 126
e 73 128
e 73 129
e 73 132
e 73 134
e 73 138
e 73 139
e 73 144
e 73 146
e 73 149
e 74 85
e 74 86
e 74 90
e 74 94
e 74 97
e 74 100
e 74 104
e 74 107
e 74 110
e 74 111
e 74 115
e 74 116
e 74 124
e 74 127
e 74 130
e 74 132
e 74 134
e 74 135
e 74 138
e 74 143
e 75 84
e 75 87
e 75 92
e 75 94
e 75 99
e 75 100
e 75 102
e 75 104
e 75 107
e 75 109
e 75 110
e 75 113
e 75 114
e 75 115
e 75 117
e 75 118
e 75 120
e 75 124
e 75 129
e 75 132
e 75 133
e 75 145
e 76 91
e 76 93
e 76 96
e 76 97
e 76 99
e 76 101
e 76 106
e 76 116
e 76 117
e 76 129
e 76 131
e 76 135
e 76 139
e 76 140
e 76 148
e 77 90
e 77 96
e 77 99
e 77 101
e 77 104
e 77 109
e 77 111
e 77 115
e 77 118
e 77 128
e 77 147
e 78 97
e 78 103
e 78 106
e 78 111
e 78 112
e 78 115
e 78 116
e 78 121
e 78 123
e 78 125
e 78 129
e 78 133
e 78 135
e 78 140
e 78 141
e 78 142
e 78 144
e 78 145
e 78 147
e 78 149
e 79 84
e 79 85
e 79 86
e 79 89
e 79 96
e 79 97
e 79 105
e 79 107
e 79 108
e 79 109
e 79 112
e 79 115
e 79 120
e 79 124
e 79 127
e 79 130
e 79 131
e 79 133
e 79 135
e 79 137
e 79 138
e 79 139
e 79 141
e 79 147
e 79 148
e 80 92
e 80 96
e 80 102
e 80 105
e 80 111
e 80 114
e 80 118
e 80 119
e 80 122
e 80 123
e 80 125
e 80 131
e 80 133
e 80 135
e 80 136
e 80 137
e 80 149
e 81 83
e 81 85
e 81 89
e 81 90
e 81 92
e 81 109
e 81 110
e 81 118
e 81 119
e 81 120
e 81 123
e 81 128
e 81 129
e 81 130
e 81 132
e 81 139
e 81 142
e 81 143
e 81 147
e 81 148
e 82 87
e 82 94
e 82 100
e 82 101
e 82 104
e 82 107
e 82 119
e 82 120
e 82 122
e 82 123
e 82 139
e 82 142
e 82 144
e 82 145
e 82 147
